p cnf 20 20
16 17 1 0
-14 17 -16 0
18 11 -6 0
12 5 13 0
3 5 9 0
-15 12 20 0
-16 -2 -15 0
15 11 18 0
-1 9 3 0
-9 -16 -7 0
-17 -9 14 0
9 -18 -11 0
-17 -12 -11 0
-5 2 18 0
6 12 -8 0
2 -6 -18 0
7 -2 -5 0
-19 -13 2 0
-5 -14 -17 0
5 4 3 0
